NAME (null)_copy
ROWS
 N  OBJ
 L  SYSTDEPT
 L  PASSNGRS
 L  LFRPMASM
 L  LFTNMILE
 E  FLAV*1  
 E  FLAV*2  
 E  FLAV*3  
 E  FLAV*4  
 L  LF1003S1
 L  LF1003B1
 L  LF1003C1
 L  LF1005S1
 L  LF1005B1
 L  LF1005C1
 L  LF1011S1
 L  LF1011S2
 L  LF1011B1
 L  LF1011B2
 L  LF1011C1
 L  LF1011C2
 L  LF1013S1
 L  LF1013S2
 L  LF1013C1
 L  LF1013C2
 L  LF1015S1
 L  LF1015C1
 L  LF1017S1
 L  LF1017C1
 L  LF1019S1
 L  LF1019S2
 L  LF1019C1
 L  LF1019C2
 L  LF1021S1
 L  LF1002S1
 L  LF1004S1
 L  LF1004C1
 L  LF1006S1
 L  LF1006S2
 L  LF1006B1
 L  LF1006C2
 L  LF1008S1
 L  LF1008S2
 L  LF1008C1
 L  LF1008C2
 L  LF1010S1
 L  LF1010S2
 L  LF1010S3
 L  LF1010C1
 L  LF1010C2
 L  LF1010C3
 L  LF1012S1
 L  LF1012C1
 L  LF1014S1
 L  LF1014S2
 L  LF1014C1
 L  LF1100S1
 L  LF1100S2
 L  LF1100S3
 L  LF1100S4
 L  LF1100S5
 L  LF1100C1
 L  LF1100C2
 L  LF1100C3
 L  LF1100C5
 L  LF1102S1
 L  LF1102S2
 L  LF1102S3
 L  LF1102S4
 L  LF1102C1
 L  LF1102C2
 L  LF1102C3
 L  LF1102C4
 L  LF1200S1
 L  LF1201S1
 L  NOPTCLE0
 L  CONTBOS1
 L  CONTBOS2
 L  CONTBOS3
 L  CONTBOS4
 L  CONTORD1
 L  CONTORD2
 L  CONTORD3
 L  CONTORD4
 L  CONTLGA2
 L  CONTLGA4
 L  CONTCLE1
 L  CONTCLE2
 L  CONTCLE3
 L  CONTCLE4
 E  DMBOSORD
 E  DMBOSLGA
 E  DMBOSCLE
 E  DMORDBOS
 E  DMORDLGA
 E  DMORDCLE
 E  DMLGABOS
 E  DMLGAORD
 E  DMLGACLE
 E  DMCLEBOS
 E  DMCLEORD
 E  DMCLELGA
 L  MSBOSORD
 L  MSBOSLGA
 L  MSBOSCLE
 L  MSORDBOS
 L  MSORDLGA
 L  MSORDCLE
 L  MSLGABOS
 L  MSLGAORD
 L  MSLGACLE
 L  MSCLEBOS
 L  MSCLEORD
 L  MSCLELGA
 L  DCBOSORD
 E  DCBOSCLE
 E  DCORDBOS
 E  DCORDLGA
 E  DCLGAORD
 E  DCLGACLE
 L  DCCLELGA
 L  MCORDBOS
 L  MCLGAORD
COLUMNS
    PBOSORD0  OBJ       -0.075
    PBOSORD0  PASSNGRS  -1
    PBOSORD0  LFRPMASM  0.86441
    PBOSORD0  DMBOSORD  1
    PBOSORD0  LF1003S1  1
    PBOSORD1  OBJ       -0.075
    PBOSORD1  PASSNGRS  -1
    PBOSORD1  LFRPMASM  0.87605
    PBOSORD1  DMBOSORD  1
    PBOSORD1  LF1011S1  1
    PBOSORD1  LF1011S2  1
    PBOSORD2  OBJ       -0.075
    PBOSORD2  PASSNGRS  -1
    PBOSORD2  LFRPMASM  0.91637
    PBOSORD2  DMBOSORD  1
    PBOSORD2  LF1013S1  1
    PBOSORD2  LF1013S2  1
    PBOSORD3  OBJ       -0.075
    PBOSORD3  PASSNGRS  -1
    PBOSORD3  LFRPMASM  0.91722
    PBOSORD3  DMBOSORD  1
    PBOSORD3  LF1100S1  1
    PBOSORD3  LF1100S2  1
    PBOSORD3  LF1100S3  1
    PBOSORD4  OBJ       -0.075
    PBOSORD4  PASSNGRS  -1
    PBOSORD4  LFRPMASM  0.87605
    PBOSORD4  DMBOSORD  1
    PBOSORD4  LF1102S1  1
    PBOSORD4  LF1102S2  1
    PBOSLGA0  OBJ       -0.027
    PBOSLGA0  PASSNGRS  -1
    PBOSLGA0  LFRPMASM  0.18557
    PBOSLGA0  DMBOSLGA  1
    PBOSLGA0  LF1013S1  1
    PBOSLGA1  OBJ       -0.027
    PBOSLGA1  PASSNGRS  -1
    PBOSLGA1  LFRPMASM  0.18557
    PBOSLGA1  DMBOSLGA  1
    PBOSLGA1  LF1100S1  1
    PBOSLGA2  OBJ       -0.027
    PBOSLGA2  PASSNGRS  -1
    PBOSLGA2  LFRPMASM  1.60685
    PBOSLGA2  DMBOSLGA  1
    PBOSLGA2  LF1102S1  1
    PBOSLGA2  LF1102S2  1
    PBOSLGA2  LF1102S3  1
    PBOSLGA3  OBJ       -0.027
    PBOSLGA3  PASSNGRS  -1
    PBOSLGA3  LFRPMASM  0.18557
    PBOSLGA3  DMBOSLGA  1
    PBOSLGA3  LF1200S1  1
    PBOSCLE0  OBJ       -0.053
    PBOSCLE0  PASSNGRS  -1
    PBOSCLE0  LFRPMASM  0.56156
    PBOSCLE0  DMBOSCLE  1
    PBOSCLE0  LF1005S1  1
    PBOSCLE1  OBJ       -0.053
    PBOSCLE1  PASSNGRS  -1
    PBOSCLE1  LFRPMASM  0.56156
    PBOSCLE1  DMBOSCLE  1
    PBOSCLE1  LF1011S1  1
    PBOSCLE2  OBJ       -0.053
    PBOSCLE2  PASSNGRS  -1
    PBOSCLE2  LFRPMASM  0.60273
    PBOSCLE2  DMBOSCLE  1
    PBOSCLE2  LF1100S1  1
    PBOSCLE2  LF1100S2  1
    PBOSCLE3  OBJ       -0.053
    PBOSCLE3  PASSNGRS  -1
    PBOSCLE3  LFRPMASM  0.56156
    PBOSCLE3  DMBOSCLE  1
    PBOSCLE3  LF1102S1  1
    PORDBOS0  OBJ       -0.075
    PORDBOS0  PASSNGRS  -1
    PORDBOS0  LFRPMASM  0.87605
    PORDBOS0  DMORDBOS  1
    PORDBOS0  LF1006S1  1
    PORDBOS0  LF1006S2  1
    PORDBOS1  OBJ       -0.075
    PORDBOS1  PASSNGRS  -1
    PORDBOS1  LFRPMASM  0.91637
    PORDBOS1  DMORDBOS  1
    PORDBOS1  LF1008S1  1
    PORDBOS1  LF1008S2  1
    PORDBOS2  OBJ       -0.075
    PORDBOS2  PASSNGRS  -1
    PORDBOS2  LFRPMASM  0.91722
    PORDBOS2  DMORDBOS  1
    PORDBOS2  LF1010S1  1
    PORDBOS2  LF1010S2  1
    PORDBOS2  LF1010S3  1
    PORDBOS3  OBJ       -0.075
    PORDBOS3  PASSNGRS  -1
    PORDBOS3  LFRPMASM  0.87605
    PORDBOS3  DMORDBOS  1
    PORDBOS3  LF1100S4  1
    PORDBOS3  LF1100S5  1
    PORDBOS4  OBJ       -0.075
    PORDBOS4  PASSNGRS  -1
    PORDBOS4  LFRPMASM  0.91637
    PORDBOS4  DMORDBOS  1
    PORDBOS4  LF1102S3  1
    PORDBOS4  LF1102S4  1
    PORDLGA0  OBJ       -0.068
    PORDLGA0  PASSNGRS  -1
    PORDLGA0  LFRPMASM  0.7308
    PORDLGA0  DMORDLGA  1
    PORDLGA0  LF1004S1  1
    PORDLGA1  OBJ       -0.068
    PORDLGA1  PASSNGRS  -1
    PORDLGA1  LFRPMASM  0.7308
    PORDLGA1  DMORDLGA  1
    PORDLGA1  LF1008S1  1
    PORDLGA2  OBJ       -0.068
    PORDLGA2  PASSNGRS  -1
    PORDLGA2  LFRPMASM  0.73165
    PORDLGA2  DMORDLGA  1
    PORDLGA2  LF1010S1  1
    PORDLGA2  LF1010S2  1
    PORDLGA3  OBJ       -0.068
    PORDLGA3  PASSNGRS  -1
    PORDLGA3  LFRPMASM  0.7308
    PORDLGA3  DMORDLGA  1
    PORDLGA3  LF1102S3  1
    PORDCLE0  OBJ       -0.035
    PORDCLE0  PASSNGRS  -1
    PORDCLE0  LFRPMASM  0.3145
    PORDCLE0  DMORDCLE  1
    PORDCLE0  LF1002S1  1
    PORDCLE1  OBJ       -0.035
    PORDCLE1  PASSNGRS  -1
    PORDCLE1  LFRPMASM  0.3145
    PORDCLE1  DMORDCLE  1
    PORDCLE1  LF1006S1  1
    PORDCLE2  OBJ       -0.035
    PORDCLE2  PASSNGRS  -1
    PORDCLE2  LFRPMASM  0.3145
    PORDCLE2  DMORDCLE  1
    PORDCLE2  LF1010S1  1
    PORDCLE3  OBJ       -0.035
    PORDCLE3  PASSNGRS  -1
    PORDCLE3  LFRPMASM  0.3145
    PORDCLE3  DMORDCLE  1
    PORDCLE3  LF1100S4  1
    PLGABOS0  OBJ       -0.027
    PLGABOS0  PASSNGRS  -1
    PLGABOS0  LFRPMASM  0.18557
    PLGABOS0  DMLGABOS  1
    PLGABOS0  LF1008S2  1
    PLGABOS1  OBJ       -0.027
    PLGABOS1  PASSNGRS  -1
    PLGABOS1  LFRPMASM  0.18557
    PLGABOS1  DMLGABOS  1
    PLGABOS1  LF1010S3  1
    PLGABOS2  OBJ       -0.027
    PLGABOS2  PASSNGRS  -1
    PLGABOS2  LFRPMASM  0.18557
    PLGABOS2  DMLGABOS  1
    PLGABOS2  LF1014S2  1
    PLGABOS3  OBJ       -0.027
    PLGABOS3  PASSNGRS  -1
    PLGABOS3  LFRPMASM  1.6077
    PLGABOS3  DMLGABOS  1
    PLGABOS3  LF1100S2  1
    PLGABOS3  LF1100S3  1
    PLGABOS3  LF1100S4  1
    PLGABOS3  LF1100S5  1
    PLGABOS4  OBJ       -0.027
    PLGABOS4  PASSNGRS  -1
    PLGABOS4  LFRPMASM  0.18557
    PLGABOS4  DMLGABOS  1
    PLGABOS4  LF1102S4  1
    PLGABOS5  OBJ       -0.027
    PLGABOS5  PASSNGRS  -1
    PLGABOS5  LFRPMASM  0.18557
    PLGABOS5  DMLGABOS  1
    PLGABOS5  LF1201S1  1
    PLGAORD0  OBJ       -0.068
    PLGAORD0  PASSNGRS  -1
    PLGAORD0  LFRPMASM  0.7308
    PLGAORD0  DMLGAORD  1
    PLGAORD0  LF1013S2  1
    PLGAORD1  OBJ       -0.068
    PLGAORD1  PASSNGRS  -1
    PLGAORD1  LFRPMASM  0.7308
    PLGAORD1  DMLGAORD  1
    PLGAORD1  LF1017S1  1
    PLGAORD2  OBJ       -0.068
    PLGAORD2  PASSNGRS  -1
    PLGAORD2  LFRPMASM  0.73165
    PLGAORD2  DMLGAORD  1
    PLGAORD2  LF1019S1  1
    PLGAORD2  LF1019S2  1
    PLGAORD3  OBJ       -0.068
    PLGAORD3  PASSNGRS  -1
    PLGAORD3  LFRPMASM  0.73165
    PLGAORD3  DMLGAORD  1
    PLGAORD3  LF1100S2  1
    PLGAORD3  LF1100S3  1
    PLGACLE0  OBJ       -0.037
    PLGACLE0  PASSNGRS  -1
    PLGACLE0  LFRPMASM  0.41715
    PLGACLE0  DMLGACLE  1
    PLGACLE0  LF1015S1  1
    PLGACLE1  OBJ       -0.037
    PLGACLE1  PASSNGRS  -1
    PLGACLE1  LFRPMASM  0.41715
    PLGACLE1  DMLGACLE  1
    PLGACLE1  LF1019S1  1
    PLGACLE2  OBJ       -0.037
    PLGACLE2  PASSNGRS  -1
    PLGACLE2  LFRPMASM  0.41715
    PLGACLE2  DMLGACLE  1
    PLGACLE2  LF1100S2  1
    PCLEBOS0  OBJ       -0.053
    PCLEBOS0  PASSNGRS  -1
    PCLEBOS0  LFRPMASM  0.56156
    PCLEBOS0  DMCLEBOS  1
    PCLEBOS0  LF1006S2  1
    PCLEBOS1  OBJ       -0.053
    PCLEBOS1  PASSNGRS  -1
    PCLEBOS1  LFRPMASM  0.60273
    PCLEBOS1  DMCLEBOS  1
    PCLEBOS1  LF1010S2  1
    PCLEBOS1  LF1010S3  1
    PCLEBOS2  OBJ       -0.053
    PCLEBOS2  PASSNGRS  -1
    PCLEBOS2  LFRPMASM  0.60273
    PCLEBOS2  DMCLEBOS  1
    PCLEBOS2  LF1014S1  1
    PCLEBOS2  LF1014S2  1
    PCLEBOS3  OBJ       -0.053
    PCLEBOS3  PASSNGRS  -1
    PCLEBOS3  LFRPMASM  0.56156
    PCLEBOS3  DMCLEBOS  1
    PCLEBOS3  LF1100S5  1
    PCLEBOS4  OBJ       -0.053
    PCLEBOS4  PASSNGRS  -1
    PCLEBOS4  LFRPMASM  1.23087
    PCLEBOS4  DMCLEBOS  1
    PCLEBOS4  LF1102S2  1
    PCLEBOS4  LF1102S3  1
    PCLEBOS4  LF1102S4  1
    PCLEORD0  OBJ       -0.035
    PCLEORD0  PASSNGRS  -1
    PCLEORD0  LFRPMASM  0.3145
    PCLEORD0  DMCLEORD  1
    PCLEORD0  LF1011S2  1
    PCLEORD1  OBJ       -0.035
    PCLEORD1  PASSNGRS  -1
    PCLEORD1  LFRPMASM  0.3145
    PCLEORD1  DMCLEORD  1
    PCLEORD1  LF1019S2  1
    PCLEORD2  OBJ       -0.035
    PCLEORD2  PASSNGRS  -1
    PCLEORD2  LFRPMASM  0.3145
    PCLEORD2  DMCLEORD  1
    PCLEORD2  LF1021S1  1
    PCLEORD3  OBJ       -0.035
    PCLEORD3  PASSNGRS  -1
    PCLEORD3  LFRPMASM  0.3145
    PCLEORD3  DMCLEORD  1
    PCLEORD3  LF1100S3  1
    PCLEORD4  OBJ       -0.035
    PCLEORD4  PASSNGRS  -1
    PCLEORD4  LFRPMASM  0.3145
    PCLEORD4  DMCLEORD  1
    PCLEORD4  LF1102S2  1
    PCLELGA0  OBJ       -0.037
    PCLELGA0  PASSNGRS  -1
    PCLELGA0  LFRPMASM  0.41715
    PCLELGA0  DMCLELGA  1
    PCLELGA0  LF1010S2  1
    PCLELGA1  OBJ       -0.037
    PCLELGA1  PASSNGRS  -1
    PCLELGA1  LFRPMASM  0.41715
    PCLELGA1  DMCLELGA  1
    PCLELGA1  LF1012S1  1
    PCLELGA2  OBJ       -0.037
    PCLELGA2  PASSNGRS  -1
    PCLELGA2  LFRPMASM  0.41715
    PCLELGA2  DMCLELGA  1
    PCLELGA2  LF1014S1  1
    PCLELGA3  OBJ       -0.037
    PCLELGA3  PASSNGRS  -1
    PCLELGA3  LFRPMASM  1.0453
    PCLELGA3  DMCLELGA  1
    PCLELGA3  LF1102S2  1
    PCLELGA3  LF1102S3  1
    BBOSORD0  OBJ       -0.75
    BBOSORD0  LFTNMILE  0.86441
    BBOSORD0  DCBOSORD  1
    BBOSORD0  LF1003B1  1
    BBOSORD1  OBJ       -0.75
    BBOSORD1  LFTNMILE  0.87605
    BBOSORD1  DCBOSORD  1
    BBOSORD1  LF1011B1  1
    BBOSORD1  LF1011B2  1
    BBOSCLE0  OBJ       -0.53
    BBOSCLE0  LFTNMILE  0.56156
    BBOSCLE0  DCBOSCLE  1
    BBOSCLE0  LF1005B1  1
    BBOSCLE1  OBJ       -0.53
    BBOSCLE1  LFTNMILE  0.56156
    BBOSCLE1  DCBOSCLE  1
    BBOSCLE1  LF1011B1  1
    BORDBOS0  OBJ       -0.75
    BORDBOS0  LFTNMILE  0.87605
    BORDBOS0  DCORDBOS  1
    BORDBOS0  LF1006B1  1
    CBOSORD0  OBJ       -0.75
    CBOSORD0  LFTNMILE  0.86441
    CBOSORD0  DCBOSORD  1
    CBOSORD0  LF1003C1  1
    CBOSORD1  OBJ       -0.75
    CBOSORD1  LFTNMILE  0.87605
    CBOSORD1  DCBOSORD  1
    CBOSORD1  LF1011C1  1
    CBOSORD1  LF1011C2  1
    CBOSORD2  OBJ       -0.75
    CBOSORD2  LFTNMILE  0.91637
    CBOSORD2  DCBOSORD  1
    CBOSORD2  LF1013C1  1
    CBOSORD2  LF1013C2  1
    CBOSORD3  OBJ       -0.75
    CBOSORD3  LFTNMILE  0.91722
    CBOSORD3  DCBOSORD  1
    CBOSORD3  LF1100C1  1
    CBOSORD3  LF1100C2  1
    CBOSORD3  LF1100C3  1
    CBOSORD4  OBJ       -0.75
    CBOSORD4  LFTNMILE  0.87605
    CBOSORD4  DCBOSORD  1
    CBOSORD4  LF1102C1  1
    CBOSORD4  LF1102C2  1
    CBOSCLE0  OBJ       -0.53
    CBOSCLE0  LFTNMILE  0.56156
    CBOSCLE0  DCBOSCLE  1
    CBOSCLE0  LF1005C1  1
    CBOSCLE1  OBJ       -0.53
    CBOSCLE1  LFTNMILE  0.56156
    CBOSCLE1  DCBOSCLE  1
    CBOSCLE1  LF1011C1  1
    CBOSCLE2  OBJ       -0.53
    CBOSCLE2  LFTNMILE  0.60273
    CBOSCLE2  DCBOSCLE  1
    CBOSCLE2  LF1100C1  1
    CBOSCLE2  LF1100C2  1
    CBOSCLE3  OBJ       -0.53
    CBOSCLE3  LFTNMILE  0.56156
    CBOSCLE3  DCBOSCLE  1
    CBOSCLE3  LF1102C1  1
    CORDBOS0  OBJ       -0.75
    CORDBOS0  LFTNMILE  0.87605
    CORDBOS0  DCORDBOS  1
    CORDBOS0  LF1006C2  1
    CORDBOS1  OBJ       -0.75
    CORDBOS1  LFTNMILE  0.91637
    CORDBOS1  DCORDBOS  1
    CORDBOS1  LF1008C1  1
    CORDBOS1  LF1008C2  1
    CORDBOS2  OBJ       -0.75
    CORDBOS2  LFTNMILE  0.91722
    CORDBOS2  DCORDBOS  1
    CORDBOS2  LF1010C1  1
    CORDBOS2  LF1010C2  1
    CORDBOS2  LF1010C3  1
    CORDBOS3  OBJ       -0.75
    CORDBOS3  LFTNMILE  0.87605
    CORDBOS3  DCORDBOS  1
    CORDBOS3  LF1100C5  1
    CORDBOS4  OBJ       -0.75
    CORDBOS4  LFTNMILE  0.91637
    CORDBOS4  DCORDBOS  1
    CORDBOS4  LF1102C3  1
    CORDBOS4  LF1102C4  1
    CORDLGA0  OBJ       -0.68
    CORDLGA0  LFTNMILE  0.7308
    CORDLGA0  DCORDLGA  1
    CORDLGA0  LF1004C1  1
    CORDLGA1  OBJ       -0.68
    CORDLGA1  LFTNMILE  0.7308
    CORDLGA1  DCORDLGA  1
    CORDLGA1  LF1008C1  1
    CORDLGA2  OBJ       -0.68
    CORDLGA2  LFTNMILE  0.73165
    CORDLGA2  DCORDLGA  1
    CORDLGA2  LF1010C1  1
    CORDLGA2  LF1010C2  1
    CORDLGA3  OBJ       -0.68
    CORDLGA3  LFTNMILE  0.7308
    CORDLGA3  DCORDLGA  1
    CORDLGA3  LF1102C3  1
    CLGAORD0  OBJ       -0.68
    CLGAORD0  LFTNMILE  0.7308
    CLGAORD0  DCLGAORD  1
    CLGAORD0  LF1013C2  1
    CLGAORD1  OBJ       -0.68
    CLGAORD1  LFTNMILE  0.7308
    CLGAORD1  DCLGAORD  1
    CLGAORD1  LF1017C1  1
    CLGAORD2  OBJ       -0.68
    CLGAORD2  LFTNMILE  0.73165
    CLGAORD2  DCLGAORD  1
    CLGAORD2  LF1019C1  1
    CLGAORD2  LF1019C2  1
    CLGAORD3  OBJ       -0.68
    CLGAORD3  LFTNMILE  0.73165
    CLGAORD3  DCLGAORD  1
    CLGAORD3  LF1100C2  1
    CLGAORD3  LF1100C3  1
    CLGACLE0  OBJ       -0.37
    CLGACLE0  LFTNMILE  0.41715
    CLGACLE0  DCLGACLE  1
    CLGACLE0  LF1015C1  1
    CLGACLE1  OBJ       -0.37
    CLGACLE1  LFTNMILE  0.41715
    CLGACLE1  DCLGACLE  1
    CLGACLE1  LF1019C1  1
    CLGACLE2  OBJ       -0.37
    CLGACLE2  LFTNMILE  0.41715
    CLGACLE2  DCLGACLE  1
    CLGACLE2  LF1100C2  1
    CCLELGA0  OBJ       -0.37
    CCLELGA0  LFTNMILE  0.41715
    CCLELGA0  DCCLELGA  1
    CCLELGA0  LF1010C2  1
    CCLELGA1  OBJ       -0.37
    CCLELGA1  LFTNMILE  0.41715
    CCLELGA1  DCCLELGA  1
    CCLELGA1  LF1012C1  1
    CCLELGA2  OBJ       -0.37
    CCLELGA2  LFTNMILE  0.41715
    CCLELGA2  DCCLELGA  1
    CCLELGA2  LF1014C1  1
    CCLELGA3  OBJ       -0.37
    CCLELGA3  LFTNMILE  1.0453
    CCLELGA3  DCCLELGA  1
    CCLELGA3  LF1102C2  1
    CCLELGA3  LF1102C3  1
    GRDTIMO1  OBJ       0.65
    GRDTIMO1  FLAV*1    1
    GRDTIMN1  OBJ       -0.05
    GRDTIMN1  FLAV*1    1
    GRDTIMO2  OBJ       0.275
    GRDTIMO2  FLAV*2    1
    GRDTIMN2  OBJ       -0.02889
    GRDTIMN2  FLAV*2    1
    GRDTIMN3  OBJ       -0.03611
    GRDTIMN3  FLAV*3    1
    GRDTIMN4  OBJ       -0.01333
    GRDTIMN4  FLAV*4    1
    N1003AC1  OBJ       0.01
    N1003AC1  SYSTDEPT  -1
    N1003AC1  LFRPMASM  -211.088376
    N1003AC1  FLAV*1    2.32729
    N1003AC1  LFTNMILE  -12.96612
    N1003AC1  LF1003S1  -305
    N1003AC1  LF1003B1  -12
    N1003AC1  CONTBOS1  -1
    N1003AC1  CONTORD1  1
    N1003AC1  MSBOSORD  -1
    N1003AC2  OBJ       0.02
    N1003AC2  SYSTDEPT  -1
    N1003AC2  LFRPMASM  -67.942458
    N1003AC2  FLAV*2    2.10966
    N1003AC2  LF1003S1  -98
    N1003AC2  CONTBOS2  -1
    N1003AC2  CONTORD2  1
    N1003AC2  MSBOSORD  -1
    N1003AC3  OBJ       0.03
    N1003AC3  SYSTDEPT  -1
    N1003AC3  FLAV*3    2.10966
    N1003AC3  LFTNMILE  -17.288155
    N1003AC3  LF1003C1  -30
    N1003AC3  CONTBOS3  -1
    N1003AC3  CONTORD3  1
    N1003AC4  OBJ       0.04
    N1003AC4  SYSTDEPT  -1
    N1003AC4  FLAV*4    2.10966
    N1003AC4  LFTNMILE  -6.48306
    N1003AC4  LF1003C1  -11.25
    N1003AC4  CONTBOS4  -1
    N1003AC4  CONTORD4  1
    N1005AC1  OBJ       4.04337
    N1005AC1  SYSTDEPT  -1
    N1005AC1  LFRPMASM  -137.131794
    N1005AC1  FLAV*1    1000
    N1005AC1  LFTNMILE  -8.423325
    N1005AC1  LF1005S1  -305
    N1005AC1  LF1005B1  -12
    N1005AC1  NOPTCLE0  -1
    N1005AC1  CONTBOS1  -1
    N1005AC1  CONTCLE1  1
    N1005AC1  MSBOSCLE  -1
    N1005AC2  OBJ       1.60964
    N1005AC2  SYSTDEPT  -1
    N1005AC2  LFRPMASM  -44.138244
    N1005AC2  FLAV*2    2000
    N1005AC2  LF1005S1  -98
    N1005AC2  NOPTCLE0  -1
    N1005AC2  CONTBOS2  -1
    N1005AC2  CONTCLE2  1
    N1005AC2  MSBOSCLE  -1
    N1005AC3  OBJ       1.93119
    N1005AC3  SYSTDEPT  -1
    N1005AC3  FLAV*3    3000
    N1005AC3  LFTNMILE  -11.2311
    N1005AC3  LF1005C1  -30
    N1005AC3  NOPTCLE0  -1
    N1005AC3  CONTBOS3  -1
    N1005AC3  CONTCLE3  1
    N1005AC4  OBJ       1.34618
    N1005AC4  SYSTDEPT  -1
    N1005AC4  FLAV*4    1500
    N1005AC4  LFTNMILE  -4.211665
    N1005AC4  LF1005C1  -11.25
    N1005AC4  NOPTCLE0  -1
    N1005AC4  CONTBOS4  -1
    N1005AC4  CONTCLE4  1
    N1011AC1  OBJ       1.1
    N1011AC1  SYSTDEPT  -2
    N1011AC1  LFRPMASM  -213.932226
    N1011AC1  FLAV*1    25
    N1011AC1  LFTNMILE  -13.1408
    N1011AC1  LF1011S1  -305
    N1011AC1  LF1011S2  -305
    N1011AC1  LF1011B1  -12
    N1011AC1  LF1011B2  -12
    N1011AC1  NOPTCLE0  -2
    N1011AC1  CONTBOS1  -1
    N1011AC1  CONTORD1  1
    N1011AC1  MSBOSCLE  -1
    N1011AC1  MSBOSORD  -1
    N1011AC1  MSCLEORD  -1
    N1011AC2  OBJ       1.2
    N1011AC2  SYSTDEPT  -2
    N1011AC2  LFRPMASM  -68.857794
    N1011AC2  FLAV*2    25
    N1011AC2  LF1011S1  -98
    N1011AC2  LF1011S2  -98
    N1011AC2  NOPTCLE0  -2
    N1011AC2  CONTBOS2  -1
    N1011AC2  CONTORD2  1
    N1011AC2  MSBOSCLE  -1
    N1011AC2  MSBOSORD  -1
    N1011AC2  MSCLEORD  -1
    N1011AC3  OBJ       1.3
    N1011AC3  SYSTDEPT  -2
    N1011AC3  FLAV*3    26
    N1011AC3  LFTNMILE  -17.52107
    N1011AC3  LF1011C1  -30
    N1011AC3  LF1011C2  -30
    N1011AC3  NOPTCLE0  -2
    N1011AC3  CONTBOS3  -1
    N1011AC3  CONTORD3  1
    N1011AC4  OBJ       2.34647
    N1011AC4  SYSTDEPT  -2
    N1011AC4  FLAV*4    27
    N1011AC4  LFTNMILE  -6.5704
    N1011AC4  LF1011C1  -11.25
    N1011AC4  LF1011C2  -11.25
    N1011AC4  NOPTCLE0  -2
    N1011AC4  CONTBOS4  -1
    N1011AC4  CONTORD4  1
    N1013AC2  OBJ       2.36783
    N1013AC2  SYSTDEPT  -2
    N1013AC2  LFRPMASM  -72.026694
    N1013AC2  FLAV*2    2.65943
    N1013AC2  LF1013S1  -98
    N1013AC2  LF1013S2  -98
    N1013AC2  CONTBOS2  -1
    N1013AC2  CONTORD2  1
    N1013AC2  MSBOSLGA  -1
    N1013AC2  MSBOSORD  -1
    N1013AC2  MSLGAORD  -1
    N1013AC4  OBJ       1.90292
    N1013AC4  SYSTDEPT  -2
    N1013AC4  FLAV*4    2.65943
    N1013AC4  LFTNMILE  -6.87278
    N1013AC4  LF1013C1  -11.25
    N1013AC4  LF1013C2  -11.25
    N1013AC4  CONTBOS4  -1
    N1013AC4  CONTORD4  1
    N1013AC4  MCLGAORD  -1
    N1015AC2  OBJ       1.36416
    N1015AC2  SYSTDEPT  -1
    N1015AC2  LFRPMASM  -32.78823
    N1015AC2  FLAV*2    1.25093
    N1015AC2  LF1015S1  -98
    N1015AC2  NOPTCLE0  -1
    N1015AC2  CONTLGA2  -1
    N1015AC2  CONTCLE2  1
    N1015AC2  MSLGACLE  -1
    N1015AC4  OBJ       1.14401
    N1015AC4  SYSTDEPT  -1
    N1015AC4  FLAV*4    1.25093
    N1015AC4  LFTNMILE  -3.128645
    N1015AC4  LF1015C1  -11.25
    N1015AC4  NOPTCLE0  -1
    N1015AC4  CONTLGA4  -1
    N1015AC4  CONTCLE4  1
    N1017AC2  OBJ       1.64736
    N1017AC2  SYSTDEPT  -1
    N1017AC2  LFRPMASM  -57.440664
    N1017AC2  FLAV*2    1.85313
    N1017AC2  LF1017S1  -98
    N1017AC2  CONTLGA2  -1
    N1017AC2  CONTORD2  1
    N1017AC2  MSLGAORD  -1
    N1017AC4  OBJ       1.33312
    N1017AC4  SYSTDEPT  -1
    N1017AC4  FLAV*4    1.85313
    N1017AC4  LFTNMILE  -5.48098
    N1017AC4  LF1017C1  -11.25
    N1017AC4  CONTLGA4  -1
    N1017AC4  CONTORD4  1
    N1017AC4  MCLGAORD  -1
    N1019AC2  OBJ       2.55381
    N1019AC2  SYSTDEPT  -2
    N1019AC2  LFRPMASM  -57.50778
    N1019AC2  FLAV*2    2.30477
    N1019AC2  LF1019S1  -98
    N1019AC2  LF1019S2  -98
    N1019AC2  NOPTCLE0  -2
    N1019AC2  CONTLGA2  -1
    N1019AC2  CONTORD2  1
    N1019AC2  MSLGACLE  -1
    N1019AC2  MSLGAORD  -1
    N1019AC2  MSCLEORD  -1
    N1019AC4  OBJ       2.14431
    N1019AC4  SYSTDEPT  -2
    N1019AC4  FLAV*4    2.30477
    N1019AC4  LFTNMILE  -5.487385
    N1019AC4  LF1019C1  -11.25
    N1019AC4  LF1019C2  -11.25
    N1019AC4  NOPTCLE0  -2
    N1019AC4  CONTLGA4  -1
    N1019AC4  CONTORD4  1
    N1019AC4  MCLGAORD  -1
    N1021AC1  OBJ       3.12679
    N1021AC1  SYSTDEPT  -1
    N1021AC1  LFRPMASM  -76.80045
    N1021AC1  FLAV*1    1.34295
    N1021AC1  LFTNMILE  -4.717475
    N1021AC1  LF1021S1  -305
    N1021AC1  NOPTCLE0  -1
    N1021AC1  CONTCLE1  -1
    N1021AC1  CONTORD1  1
    N1021AC1  MSCLEORD  -1
    N1021AC2  OBJ       1.18965
    N1021AC2  SYSTDEPT  -1
    N1021AC2  LFRPMASM  -24.719556
    N1021AC2  FLAV*2    1.05384
    N1021AC2  LF1021S1  -98
    N1021AC2  NOPTCLE0  -1
    N1021AC2  CONTCLE2  -1
    N1021AC2  CONTORD2  1
    N1021AC2  MSCLEORD  -1
    N1021AC3  OBJ       1.42472
    N1021AC3  SYSTDEPT  -1
    N1021AC3  FLAV*3    1.05384
    N1021AC3  LFTNMILE  -6.289965
    N1021AC3  NOPTCLE0  -1
    N1021AC3  CONTCLE3  -1
    N1021AC3  CONTORD3  1
    N1021AC4  OBJ       1.0003
    N1021AC4  SYSTDEPT  -1
    N1021AC4  FLAV*4    1.05384
    N1021AC4  LFTNMILE  -2.358735
    N1021AC4  NOPTCLE0  -1
    N1021AC4  CONTCLE4  -1
    N1021AC4  CONTORD4  1
    N1002AC1  OBJ       3.12679
    N1002AC1  SYSTDEPT  -1
    N1002AC1  LFRPMASM  -76.80045
    N1002AC1  FLAV*1    1.34295
    N1002AC1  LFTNMILE  -4.717475
    N1002AC1  LF1002S1  -305
    N1002AC1  NOPTCLE0  -1
    N1002AC1  CONTORD1  -1
    N1002AC1  CONTCLE1  1
    N1002AC1  MSORDCLE  -1
    N1002AC2  OBJ       1.18965
    N1002AC2  SYSTDEPT  -1
    N1002AC2  LFRPMASM  -24.719556
    N1002AC2  FLAV*2    1.05384
    N1002AC2  LF1002S1  -98
    N1002AC2  NOPTCLE0  -1
    N1002AC2  CONTORD2  -1
    N1002AC2  CONTCLE2  1
    N1002AC2  MSORDCLE  -1
    N1002AC3  OBJ       1.42472
    N1002AC3  SYSTDEPT  -1
    N1002AC3  FLAV*3    1.05384
    N1002AC3  LFTNMILE  -6.289965
    N1002AC3  NOPTCLE0  -1
    N1002AC3  CONTORD3  -1
    N1002AC3  CONTCLE3  1
    N1002AC4  OBJ       1.0003
    N1002AC4  SYSTDEPT  -1
    N1002AC4  FLAV*4    1.05384
    N1002AC4  LFTNMILE  -2.358735
    N1002AC4  NOPTCLE0  -1
    N1002AC4  CONTORD4  -1
    N1002AC4  CONTCLE4  1
    N1004AC2  OBJ       1.64736
    N1004AC2  SYSTDEPT  -1
    N1004AC2  LFRPMASM  -57.440664
    N1004AC2  FLAV*2    1.85313
    N1004AC2  LF1004S1  -98
    N1004AC2  CONTORD2  -1
    N1004AC2  CONTLGA2  1
    N1004AC2  MSORDLGA  -1
    N1004AC4  OBJ       1.33312
    N1004AC4  SYSTDEPT  -1
    N1004AC4  FLAV*4    1.85313
    N1004AC4  LFTNMILE  -5.48098
    N1004AC4  LF1004C1  -11.25
    N1004AC4  CONTORD4  -1
    N1004AC4  CONTLGA4  1
    N1006AC1  OBJ       7.17016
    N1006AC1  SYSTDEPT  -2
    N1006AC1  LFRPMASM  -213.932226
    N1006AC1  FLAV*1    3.12813
    N1006AC1  LFTNMILE  -13.1408
    N1006AC1  LF1006S1  -305
    N1006AC1  LF1006S2  -305
    N1006AC1  LF1006B1  -12
    N1006AC1  NOPTCLE0  -2
    N1006AC1  CONTORD1  -1
    N1006AC1  CONTBOS1  1
    N1006AC1  MSORDCLE  -1
    N1006AC1  MSORDBOS  -1
    N1006AC1  MSCLEBOS  -1
    N1006AC2  OBJ       2.79929
    N1006AC2  SYSTDEPT  -2
    N1006AC2  LFRPMASM  -68.857794
    N1006AC2  FLAV*2    2.58202
    N1006AC2  LF1006S1  -98
    N1006AC2  LF1006S2  -98
    N1006AC2  NOPTCLE0  -2
    N1006AC2  CONTORD2  -1
    N1006AC2  CONTBOS2  1
    N1006AC2  MSORDCLE  -1
    N1006AC2  MSORDBOS  -1
    N1006AC2  MSCLEBOS  -1
    N1006AC3  OBJ       3.35591
    N1006AC3  SYSTDEPT  -2
    N1006AC3  FLAV*3    2.58202
    N1006AC3  LFTNMILE  -17.52107
    N1006AC3  LF1006C2  -30
    N1006AC3  NOPTCLE0  -2
    N1006AC3  CONTORD3  -1
    N1006AC3  CONTBOS3  1
    N1006AC3  MCORDBOS  -1
    N1006AC4  OBJ       2.34647
    N1006AC4  SYSTDEPT  -2
    N1006AC4  FLAV*4    2.58202
    N1006AC4  LFTNMILE  -6.5704
    N1006AC4  LF1006C2  -11.25
    N1006AC4  NOPTCLE0  -2
    N1006AC4  CONTORD4  -1
    N1006AC4  CONTBOS4  1
    N1006AC4  MCORDBOS  -1
    N1008AC2  OBJ       2.36783
    N1008AC2  SYSTDEPT  -2
    N1008AC2  LFRPMASM  -72.026694
    N1008AC2  FLAV*2    2.65943
    N1008AC2  LF1008S1  -98
    N1008AC2  LF1008S2  -98
    N1008AC2  CONTORD2  -1
    N1008AC2  CONTBOS2  1
    N1008AC2  MSORDLGA  -1
    N1008AC2  MSORDBOS  -1
    N1008AC2  MSLGABOS  -1
    N1008AC4  OBJ       1.90292
    N1008AC4  SYSTDEPT  -2
    N1008AC4  FLAV*4    2.65943
    N1008AC4  LFTNMILE  -6.87278
    N1008AC4  LF1008C1  -11.25
    N1008AC4  LF1008C2  -11.25
    N1008AC4  CONTORD4  -1
    N1008AC4  CONTBOS4  1
    N1008AC4  MCORDBOS  -1
    N1010AC2  OBJ       3.27428
    N1010AC2  SYSTDEPT  -3
    N1010AC2  LFRPMASM  -72.093822
    N1010AC2  FLAV*2    3.11107
    N1010AC2  LF1010S1  -98
    N1010AC2  LF1010S2  -98
    N1010AC2  LF1010S3  -98
    N1010AC2  NOPTCLE0  -2
    N1010AC2  CONTORD2  -1
    N1010AC2  CONTBOS2  1
    N1010AC2  MSORDCLE  -1
    N1010AC2  MSORDLGA  -1
    N1010AC2  MSORDBOS  -1
    N1010AC2  MSCLELGA  -1
    N1010AC2  MSCLEBOS  -1
    N1010AC2  MSLGABOS  -1
    N1010AC4  OBJ       2.71411
    N1010AC4  SYSTDEPT  -3
    N1010AC4  FLAV*4    3.11107
    N1010AC4  LFTNMILE  -6.87918
    N1010AC4  LF1010C1  -11.25
    N1010AC4  LF1010C2  -11.25
    N1010AC4  LF1010C3  -11.25
    N1010AC4  NOPTCLE0  -2
    N1010AC4  CONTORD4  -1
    N1010AC4  CONTBOS4  1
    N1010AC4  MCORDBOS  -1
    N1012AC2  OBJ       1.36416
    N1012AC2  SYSTDEPT  -1
    N1012AC2  LFRPMASM  -32.78823
    N1012AC2  FLAV*2    1.25093
    N1012AC2  LF1012S1  -98
    N1012AC2  NOPTCLE0  -1
    N1012AC2  CONTCLE2  -1
    N1012AC2  CONTLGA2  1
    N1012AC2  MSCLELGA  -1
    N1012AC4  OBJ       1.14401
    N1012AC4  SYSTDEPT  -1
    N1012AC4  FLAV*4    1.25093
    N1012AC4  LFTNMILE  -3.128645
    N1012AC4  LF1012C1  -11.25
    N1012AC4  NOPTCLE0  -1
    N1012AC4  CONTCLE4  -1
    N1012AC4  CONTLGA4  1
    N1014AC2  OBJ       2.08463
    N1014AC2  SYSTDEPT  -2
    N1014AC2  LFRPMASM  -47.374236
    N1014AC2  FLAV*2    2.05723
    N1014AC2  LF1014S1  -98
    N1014AC2  LF1014S2  -98
    N1014AC2  NOPTCLE0  -1
    N1014AC2  CONTCLE2  -1
    N1014AC2  CONTBOS2  1
    N1014AC2  MSCLELGA  -1
    N1014AC2  MSCLEBOS  -1
    N1014AC2  MSLGABOS  -1
    N1014AC4  OBJ       1.71382
    N1014AC4  SYSTDEPT  -2
    N1014AC4  FLAV*4    2.05723
    N1014AC4  LFTNMILE  -4.520445
    N1014AC4  LF1014C1  -11.25
    N1014AC4  NOPTCLE0  -1
    N1014AC4  CONTCLE4  -1
    N1014AC4  CONTBOS4  1
    N1100AC2  OBJ       6.07357
    N1100AC2  SYSTDEPT  -5
    N1100AC2  LFRPMASM  -140.951622
    N1100AC2  FLAV*2    5.69309
    N1100AC2  LF1100S1  -98
    N1100AC2  LF1100S2  -98
    N1100AC2  LF1100S3  -98
    N1100AC2  LF1100S4  -98
    N1100AC2  LF1100S5  -98
    N1100AC2  NOPTCLE0  -4
    N1100AC2  MSBOSLGA  -1
    N1100AC2  MSBOSCLE  -1
    N1100AC2  MSBOSORD  -1
    N1100AC2  MSLGACLE  -1
    N1100AC2  MSLGAORD  -1
    N1100AC2  MSLGABOS  -1
    N1100AC2  MSCLEORD  -1
    N1100AC2  MSORDCLE  -1
    N1100AC2  MSORDBOS  -1
    N1100AC2  MSCLEBOS  -1
    N1100AC4  OBJ       5.06059
    N1100AC4  SYSTDEPT  -5
    N1100AC4  FLAV*4    5.69309
    N1100AC4  LFTNMILE  -13.449575
    N1100AC4  LF1100C1  -11.25
    N1100AC4  LF1100C2  -11.25
    N1100AC4  LF1100C3  -11.25
    N1100AC4  LF1100C5  -11.25
    N1100AC4  NOPTCLE0  -4
    N1100AC4  MCLGAORD  -1
    N1100AC4  MCORDBOS  -1
    N1102AC2  OBJ       5.16712
    N1102AC2  SYSTDEPT  -4
    N1102AC2  LFRPMASM  -140.884536
    N1102AC2  FLAV*2    5.24145
    N1102AC2  LF1102S1  -98
    N1102AC2  LF1102S2  -98
    N1102AC2  LF1102S3  -98
    N1102AC2  LF1102S4  -98
    N1102AC2  NOPTCLE0  -2
    N1102AC2  MSBOSCLE  -1
    N1102AC2  MSBOSORD  -1
    N1102AC2  MSBOSLGA  -1
    N1102AC2  MSCLEORD  -1
    N1102AC2  MSCLELGA  -1
    N1102AC2  MSCLEBOS  -1
    N1102AC2  MSORDLGA  -1
    N1102AC2  MSORDBOS  -1
    N1102AC2  MSLGABOS  -1
    N1102AC4  OBJ       4.24939
    N1102AC4  SYSTDEPT  -4
    N1102AC4  FLAV*4    5.24145
    N1102AC4  LFTNMILE  -13.443175
    N1102AC4  LF1102C1  -11.25
    N1102AC4  LF1102C2  -11.25
    N1102AC4  LF1102C3  -11.25
    N1102AC4  LF1102C4  -11.25
    N1102AC4  NOPTCLE0  -2
    N1102AC4  MCORDBOS  -1
    N1200AC2  OBJ       0.72047
    N1200AC2  SYSTDEPT  -1
    N1200AC2  LFRPMASM  -14.586042
    N1200AC2  FLAV*2    0.8063
    N1200AC2  LF1200S1  -98
    N1200AC2  CONTBOS2  -1
    N1200AC2  CONTLGA2  1
    N1200AC2  MSBOSLGA  -1
    N1200AC4  OBJ       0.5698
    N1200AC4  SYSTDEPT  -1
    N1200AC4  FLAV*4    0.8063
    N1200AC4  LFTNMILE  -1.3918
    N1200AC4  CONTBOS4  -1
    N1200AC4  CONTLGA4  1
    N1201AC2  OBJ       0.72047
    N1201AC2  SYSTDEPT  -1
    N1201AC2  LFRPMASM  -14.586042
    N1201AC2  FLAV*2    0.8063
    N1201AC2  LF1201S1  -98
    N1201AC2  CONTLGA2  -1
    N1201AC2  CONTBOS2  1
    N1201AC2  MSLGABOS  -1
    N1201AC4  OBJ       0.5698
    N1201AC4  SYSTDEPT  -1
    N1201AC4  FLAV*4    0.8063
    N1201AC4  LFTNMILE  -1.3918
    N1201AC4  CONTLGA4  -1
    N1201AC4  CONTBOS4  1
    MPS_RgDMBOSORD  DMBOSORD  1
    MPS_RgDMBOSLGA  DMBOSLGA  1
    MPS_RgDMBOSCLE  DMBOSCLE  1
    MPS_RgDMORDBOS  DMORDBOS  1
    MPS_RgDMORDLGA  DMORDLGA  1
    MPS_RgDMORDCLE  DMORDCLE  1
    MPS_RgDMLGABOS  DMLGABOS  1
    MPS_RgDMLGAORD  DMLGAORD  1
    MPS_RgDMLGACLE  DMLGACLE  1
    MPS_RgDMCLEBOS  DMCLEBOS  1
    MPS_RgDMCLEORD  DMCLEORD  1
    MPS_RgDMCLELGA  DMCLELGA  1
    MPS_RgDCBOSCLE  DCBOSCLE  1
    MPS_RgDCORDBOS  DCORDBOS  1
    MPS_RgDCORDLGA  DCORDLGA  1
    MPS_RgDCLGAORD  DCLGAORD  1
    MPS_RgDCLGACLE  DCLGACLE  1
RHS
    RHS1      SYSTDEPT  -50
    RHS1      PASSNGRS  -9431
    RHS1      FLAV*1    30
    RHS1      FLAV*2    45
    RHS1      NOPTCLE0  -24
    RHS1      DMBOSORD  302
    RHS1      DMBOSLGA  2352
    RHS1      DMBOSCLE  142
    RHS1      DMORDBOS  302
    RHS1      DMORDLGA  515
    RHS1      DMORDCLE  619
    RHS1      DMLGABOS  2743
    RHS1      DMLGAORD  712
    RHS1      DMLGACLE  517
    RHS1      DMCLEBOS  131
    RHS1      DMCLEORD  712
    RHS1      DMCLELGA  409
    RHS1      MSBOSORD  -3
    RHS1      MSBOSLGA  -7
    RHS1      MSBOSCLE  -1
    RHS1      MSORDBOS  -3
    RHS1      MSORDLGA  -4
    RHS1      MSORDCLE  -5
    RHS1      MSLGABOS  -7
    RHS1      MSLGAORD  -5
    RHS1      MSLGACLE  -4
    RHS1      MSCLEBOS  -1
    RHS1      MSCLEORD  -6
    RHS1      MSCLELGA  -3
    RHS1      DCBOSORD  12
    RHS1      DCBOSCLE  16
    RHS1      DCORDBOS  24
    RHS1      DCORDLGA  13
    RHS1      DCLGAORD  45
    RHS1      DCLGACLE  16
    RHS1      DCCLELGA  5
    RHS1      MCORDBOS  -1
    RHS1      MCLGAORD  -2
BOUNDS
 UP BND1      PBOSORD0  302.303
 UP BND1      PBOSORD1  302.303
 UP BND1      PBOSORD2  302.303
 UP BND1      PBOSORD3  302.303
 UP BND1      PBOSORD4  302.303
 UP BND1      PBOSLGA0  1373.373
 UP BND1      PBOSLGA1  686.687
 UP BND1      PBOSLGA2  686.687
 UP BND1      PBOSLGA3  1373.373
 UP BND1      PBOSCLE0  4.6312265000000004e+01
 UP BND1      PBOSCLE1  142.143
 UP BND1      PBOSCLE2  142.143
 UP BND1      PBOSCLE3  142.143
 UP BND1      PORDBOS0  302.303
 UP BND1      PORDBOS1  302.303
 UP BND1      PORDBOS2  302.303
 UP BND1      PORDBOS3  302.303
 UP BND1      PORDBOS4  302.303
 UP BND1      PORDLGA0  515.516
 UP BND1      PORDLGA1  515.516
 UP BND1      PORDLGA2  515.516
 UP BND1      PORDLGA3  515.516
 UP BND1      PORDCLE0  619.62
 UP BND1      PORDCLE1  619.62
 UP BND1      PORDCLE2  619.62
 UP BND1      PORDCLE3  619.62
 UP BND1      PLGABOS0  1373.373
 UP BND1      PLGABOS1  1373.373
 UP BND1      PLGABOS2  1373.373
 UP BND1      PLGABOS3  686.687
 UP BND1      PLGABOS4  686.687
 UP BND1      PLGABOS5  1373.373
 UP BND1      PLGAORD0  712.713
 UP BND1      PLGAORD1  686.687
 UP BND1      PLGAORD2  686.687
 UP BND1      PLGAORD3  686.687
 UP BND1      PLGACLE0  517.518
 UP BND1      PLGACLE1  517.518
 UP BND1      PLGACLE2  517.518
 UP BND1      PCLEBOS0  131.132
 UP BND1      PCLEBOS1  131.132
 UP BND1      PCLEBOS2  131.132
 UP BND1      PCLEBOS3  131.132
 UP BND1      PCLEBOS4  131.132
 UP BND1      PCLEORD0  712.713
 UP BND1      PCLEORD1  686.687
 UP BND1      PCLEORD2  712.713
 UP BND1      PCLEORD3  686.687
 UP BND1      PCLEORD4  686.687
 UP BND1      PCLELGA0  409.41
 UP BND1      PCLELGA1  409.41
 UP BND1      PCLELGA2  409.41
 UP BND1      PCLELGA3  409.41
 UP BND1      BBOSORD0  12.013
 UP BND1      BBOSORD1  12.013
 UP BND1      BBOSCLE0  1.56256
 UP BND1      BBOSCLE1  16.017
 UP BND1      BORDBOS0  24.025
 UP BND1      CBOSORD0  12.013
 UP BND1      CBOSORD1  12.013
 UP BND1      CBOSORD2  12.013
 UP BND1      CBOSORD3  12.013
 UP BND1      CBOSORD4  12.013
 UP BND1      CBOSCLE0  7.8928749999999992e-01
 UP BND1      CBOSCLE1  16.017
 UP BND1      CBOSCLE2  16.017
 UP BND1      CBOSCLE3  16.017
 UP BND1      CORDBOS0  24.025
 UP BND1      CORDBOS1  22.5235
 UP BND1      CORDBOS2  22.5235
 UP BND1      CORDBOS3  24.025
 UP BND1      CORDBOS4  24.025
 UP BND1      CORDLGA0  13.014
 UP BND1      CORDLGA1  13.014
 UP BND1      CORDLGA2  13.014
 UP BND1      CORDLGA3  13.014
 UP BND1      CLGAORD0  22.5235
 UP BND1      CLGAORD1  22.5235
 UP BND1      CLGAORD2  22.5235
 UP BND1      CLGAORD3  45.046
 UP BND1      CLGACLE0  16.017
 UP BND1      CLGACLE1  16.017
 UP BND1      CLGACLE2  16.017
 UP BND1      CCLELGA0  5.006
 UP BND1      CCLELGA1  5.006
 UP BND1      CCLELGA2  5.006
 UP BND1      CCLELGA3  5.006
 UP BND1      GRDTIMO1  130.131
 LO BND1      GRDTIMN1  -100
 UP BND1      GRDTIMN1  0
 UP BND1      GRDTIMO2  135.136
 LO BND1      GRDTIMN2  -90
 UP BND1      GRDTIMN2  0
 LO BND1      GRDTIMN3  -45
 UP BND1      GRDTIMN3  0
 LO BND1      GRDTIMN4  -45
 UP BND1      GRDTIMN4  0
 UP BND1      N1003AC1  7
 UP BND1      N1003AC2  7
 UP BND1      N1003AC3  2
 UP BND1      N1003AC4  2
 UP BND1      N1005AC1  0.13113
 UP BND1      N1005AC2  0.0685675
 UP BND1      N1005AC3  1.6014999999999998e-02
 UP BND1      N1005AC4  0.03103
 UP BND1      N1011AC1  5.2062
 UP BND1      N1011AC2  5.4064000000000005e+00
 UP BND1      N1011AC3  1.7335
 UP BND1      N1011AC4  1.6693333333333333e+00
 UP BND1      N1013AC2  14
 UP BND1      N1013AC4  2
 UP BND1      N1015AC2  7
 UP BND1      N1015AC4  2
 UP BND1      N1017AC2  7
 UP BND1      N1017AC4  2
 UP BND1      N1019AC2  7
 UP BND1      N1019AC4  2
 UP BND1      N1021AC1  7
 UP BND1      N1021AC2  7
 UP BND1      N1021AC3  2
 UP BND1      N1021AC4  2
 UP BND1      N1002AC1  7
 UP BND1      N1002AC2  7
 UP BND1      N1002AC3  2
 UP BND1      N1002AC4  2
 UP BND1      N1004AC2  7
 UP BND1      N1004AC4  2
 UP BND1      N1006AC1  7
 UP BND1      N1006AC2  7
 UP BND1      N1006AC3  2
 UP BND1      N1006AC4  2
 UP BND1      N1008AC2  14
 UP BND1      N1008AC4  2
 UP BND1      N1010AC2  14
 UP BND1      N1010AC4  2
 UP BND1      N1012AC2  7
 UP BND1      N1012AC4  2
 UP BND1      N1014AC2  14
 UP BND1      N1014AC4  2
 UP BND1      N1100AC2  7
 UP BND1      N1100AC4  7
 UP BND1      N1102AC2  7
 UP BND1      N1102AC4  7
 UP BND1      N1200AC2  14
 UP BND1      N1200AC4  7
 UP BND1      N1201AC2  14
 UP BND1      N1201AC4  7
 UP BND1      MPS_RgDMBOSORD  61
 UP BND1      MPS_RgDMBOSLGA  471
 UP BND1      MPS_RgDMBOSCLE  29
 UP BND1      MPS_RgDMORDBOS  61
 UP BND1      MPS_RgDMORDLGA  103
 UP BND1      MPS_RgDMORDCLE  124
 UP BND1      MPS_RgDMLGABOS  549
 UP BND1      MPS_RgDMLGAORD  143
 UP BND1      MPS_RgDMLGACLE  104
 UP BND1      MPS_RgDMCLEBOS  27
 UP BND1      MPS_RgDMCLEORD  143
 UP BND1      MPS_RgDMCLELGA  82
 UP BND1      MPS_RgDCBOSCLE  3.2
 UP BND1      MPS_RgDCORDBOS  4.8
 UP BND1      MPS_RgDCORDLGA  2.6
 UP BND1      MPS_RgDCLGAORD  9
 UP BND1      MPS_RgDCLGACLE  3.2
ENDATA
